(set-logic ALL)
(declare-const x String)
(declare-const y String)
(assert (str.in_re x (re.+ (str.to_re "s7g:!+d"))))
(assert (str.in_re y (re.+ (str.to_re "d"))))
(assert (= (str.len x) 2))
(check-sat)
